15
-1 33 35 25 6 7 45 18 29 1 3 23 4 45 45 
19 -1 20 9 27 24 37 30 31 21 29 46 43 16 25 
14 11 -1 20 29 37 36 48 11 25 28 12 39 30 34 
1 9 29 -1 32 29 49 30 11 41 45 40 8 14 9 
50 19 14 26 -1 30 44 31 45 38 37 42 48 43 11 
40 40 22 48 30 -1 31 7 38 1 38 34 33 21 11 
40 13 9 26 23 45 -1 28 14 15 23 4 31 40 38 
46 37 48 45 19 33 32 -1 45 31 18 28 48 9 41 
29 42 12 5 13 20 31 7 -1 12 42 4 32 44 40 
18 48 26 2 17 12 39 44 27 -1 21 30 27 16 47 
27 33 26 35 42 25 20 27 21 4 -1 7 15 46 8 
46 15 11 8 32 26 2 46 43 5 7 -1 12 3 9 
35 2 3 28 33 12 6 22 30 9 23 30 -1 11 16 
19 48 48 7 28 10 40 32 18 10 5 5 14 -1 19 
29 5 24 46 31 14 4 6 41 42 36 32 48 6 -1 
